CMD:
./solvers/bin/cadical --plain --no-reduce -t 1600 ./data/cnfs//6s515rb1/6s515rb1.95.cnf

c --- [ banner ] -------------------------------------------------------------
c 
c CaDiCaL SAT Solver
c Copyright (c) 2016-2024
c A. Biere, M. Fleury, N. Froleyks, K. Fazekas, F. Pollitt, T. Faller
c JKU Linz, University of Freiburg, TU Wien
c 
c Version 2.1.3 5296d3d2a9bf48c154ab2acb5e44625776d821bf
c g++ (Gentoo 12.3.1_p20230526 p2) 12.3.1 20230526 -Wall -Wextra -O3 -DNDEBUG
c Sat Aug 9 07:26:21 PDT 2025 Linux cedar2.int.cedar.computecanada.ca 5.14.0-362.24.2.el9_3.x86_64 x86_64
c 
c --- [ limit ] --------------------------------------------------------------
c 
c setting time limit to 1600 seconds real time (due to '-t 1600')
c 
c --- [ parsing input ] ------------------------------------------------------
c 
c reading DIMACS file from './data/cnfs//6s515rb1/6s515rb1.95.cnf'
c opening file to read './data/cnfs//6s515rb1/6s515rb1.95.cnf'
c found 'p cnf 280793 754233' header
c parsed 754233 clauses in 0.11 seconds process time
c 
c --- [ options ] ------------------------------------------------------------
c 
c   --compact=false                (different from default 'true')
c   --decompose=false              (different from default 'true')
c   --deduplicate=false            (different from default 'true')
c   --elim=false                   (different from default 'true')
c   --probe=false                  (different from default 'true')
c   --reduce=false                 (different from default 'true')
c   --subsume=false                (different from default 'true')
c   --ternary=false                (different from default 'true')
c   --transred=false               (different from default 'true')
c   --vivify=false                 (different from default 'true')
c 
c --- [ solving ] ------------------------------------------------------------
c 
c time measured in process time since initialization
c 
c  seconds   reductions  redundant  irredundant
c          MB    restarts       trail       variables
c           level   conflicts       glue          remaining
c 
c *  0.11 126  0 0   0    0    0  0% 0 738547 269516 96%
c {  0.17 129  0 0   0    0    0  0% 0 738547 269516 96%
c i  0.17 129  1 0   0    1    0  4% 0 738547 269515 96%
c i  0.19 130 654 0   0   50   40 43% 1 738547 269310 96%
c i  0.19 130 656 0   0   57   46 43% 1 738547 269117 96%
c i  0.19 130 658 0   0   71   58 43% 1 738547 268924 96%
c i  0.19 130 658 0   0   73   59 43% 1 738547 268918 96%
c i  0.19 130 659 0   0   94   74 43% 1 738547 268912 96%
c i  0.21 130 640 0   1  124   99 42% 1 738547 268911 96%
c i  0.21 130 641 0   1  125   99 42% 1 738547 268910 96%
c i  0.51 131 1768 0   8  691  514 62% 2 738547 268909 96%
c i  0.51 131 1728 0  12  705  527 61% 2 738547 268867 96%
c }  0.54 131 1194 0  82 1000  783 45% 2 738547 268867 96%
c [  0.54 131  0 0  82 1000  783  0% 0 738547 268867 96%
c O  0.60 132 2399 0  82 1002  785 61% 3 738547 268867 96%
c ]  0.76 132 1564 0  83 3002 2629 40% 6 738547 268867 96%
c {  0.76 132 1194 0  83 3002 2629 45% 2 738547 268867 96%
c F  0.77 132 1193 0  83 3003 2630 45% 2 738547 268867 96%
c i  1.84 134 421 0 629 5380 4852 24% 3 738547 268858 96%
c i  2.08 134 407 0 703 5793 5246 24% 3 738547 268780 96%
c 
c  seconds    reductions  redundant  irredundant
c          MB     restarts       trail       variables
c            level   conflicts       glue          remaining
c 
c i  2.20 134 400 0 728 5929 5371 24% 3 738547 268744 96%
c i  2.20 134 399 0 729 5931 5372 24% 3 738547 268708 96%
c #  2.22 134 393 0 747 6005 5435 23% 3 738547 268708 96%
c i  2.25 134 381 0 758 6155 5572 23% 3 738547 268697 96%
c i  2.25 134 379 0 758 6183 5595 23% 3 738547 268685 96%
c i  2.26 134 376 0 758 6259 5660 23% 3 738547 268668 96%
c i  2.26 134 375 0 758 6265 5662 23% 3 738547 268654 96%
c i  2.28 134 365 0 773 6407 5791 23% 3 738547 268614 96%
c i  2.33 134 352 0 805 6596 5968 23% 3 738547 268613 96%
c i  2.34 134 345 0 807 6694 6049 22% 3 738547 268612 96%
c }  2.47 134 329 0 870 7003 6337 22% 3 738547 268612 96%
c [  2.47 134 1564 0 870 7003 6337 40% 6 738547 268612 96%
c i  2.55 134 1518 0 871 7121 6447 40% 6 738547 268540 96%
c i  2.55 134 1510 0 871 7135 6451 40% 6 738547 268468 96%
c i  2.59 134 1304 0 871 7498 6745 35% 6 738547 268433 96%
c i  2.59 134 1287 0 871 7531 6765 35% 6 738547 268361 96%
c i  2.59 134 1286 0 871 7534 6767 35% 6 738547 268289 96%
c i  2.59 134 1284 0 871 7537 6769 35% 6 738547 267904 95%
c ]  2.59 134 1283 0 871 7540 6769 35% 6 738547 266076 95%
c 0  2.59 134 1283 0 871 7540 6769 35% 6 738547 266076 95%
c 
c --- [ result ] -------------------------------------------------------------
c 
s UNSATISFIABLE
c 
c --- [ run-time profiling ] -------------------------------------------------
c 
c process time taken by individual solving procedures
c (percentage relative to process time for solving)
c 
c         2.49  100.00% search
c         2.08   83.60% unstable
c         0.35   13.90% stable
c         0.11    4.33% parse
c         0.06    2.49% lucky
c         0.00    0.00% simplify
c   =================================
c         2.49   95.83% solve
c 
c last line shows process time for solving
c (percentage relative to total process time)
c 
c --- [ statistics ] ---------------------------------------------------------
c 
c chronological:              3836        50.88 %  of conflicts
c conflicts:                  7540      3032.75    per second
c decisions:                126133     50733.35    per second
c fixed:                     14205         5.06 %  of all variables
c learned:                    7080        93.90 %  per conflict
c learned_lits:              89553       100.00 %  learned literals
c minimized:                     0         0.00 %  learned literals
c shrunken:                   7667         8.56 %  learned literals
c minishrunken:               7512         8.39 %  learned literals
c otfs:                        167         2.21 %  of conflict
c propagations:           35504135        14.28 M  per second
c rephased:                      3      2513.33    interval
c restarts:                    871         8.66    interval
c stabilizing:                   2        33.67 %  of conflicts
c subsumed:                    282         0.04 %  of all clauses
c strengthened:                167         0.02 %  of all clauses
c 
c seconds are measured in process time for solving
c 
c --- [ resources ] ----------------------------------------------------------
c 
c total process time since initialization:         2.59    seconds
c total real time since initialization:            2.62    seconds
c maximum resident set size of process:          133.19    MB
c 
c --- [ shutting down ] ------------------------------------------------------
c 
c exit 20
